(set-logic QF_LRA)
(declare-fun X0 () Real )
(declare-fun Y0 () Real )
(declare-fun X1 () Real )
(declare-fun Y1 () Real )
(declare-fun X2 () Real )
(declare-fun Y2 () Real )
(declare-fun X3 () Real )
(declare-fun Y3 () Real )
(declare-fun X4 () Real )
(declare-fun Y4 () Real )
(declare-fun X5 () Real )
(declare-fun Y5 () Real )
(declare-fun X6 () Real )
(declare-fun Y6 () Real )
(declare-fun X7 () Real )
(declare-fun Y7 () Real )
(declare-fun X8 () Real )
(declare-fun Y8 () Real )
(declare-fun X9 () Real )
(declare-fun Y9 () Real )
(declare-fun X10 () Real )
(declare-fun Y10 () Real )
(declare-fun X11 () Real )
(declare-fun Y11 () Real )
(declare-fun X12 () Real )
(declare-fun Y12 () Real )
(declare-fun X13 () Real )
(declare-fun Y13 () Real )
(declare-fun X14 () Real )
(declare-fun Y14 () Real )
(declare-fun Z () Real )
(assert ( and  
( or ( <= ( + X0 27 ) X1 )  ( <= ( + X1 19 ) X0 )  ( <= ( + Y0 25 ) Y1 )  ( <= ( + Y1 24 ) Y0 )  )
( or ( <= ( + X0 27 ) X2 )  ( <= ( + X2 84 ) X0 )  ( <= ( + Y0 25 ) Y2 )  ( <= ( + Y2 55 ) Y0 )  )
( or ( <= ( + X0 27 ) X3 )  ( <= ( + X3 71 ) X0 )  ( <= ( + Y0 25 ) Y3 )  ( <= ( + Y3 10 ) Y0 )  )
( or ( <= ( + X0 27 ) X4 )  ( <= ( + X4 62 ) X0 )  ( <= ( + Y0 25 ) Y4 )  ( <= ( + Y4 91 ) Y0 )  )
( or ( <= ( + X0 27 ) X5 )  ( <= ( + X5 98 ) X0 )  ( <= ( + Y0 25 ) Y5 )  ( <= ( + Y5 62 ) Y0 )  )
( or ( <= ( + X0 27 ) X6 )  ( <= ( + X6 16 ) X0 )  ( <= ( + Y0 25 ) Y6 )  ( <= ( + Y6 70 ) Y0 )  )
( or ( <= ( + X0 27 ) X7 )  ( <= ( + X7 31 ) X0 )  ( <= ( + Y0 25 ) Y7 )  ( <= ( + Y7 53 ) Y0 )  )
( or ( <= ( + X0 27 ) X8 )  ( <= ( + X8 97 ) X0 )  ( <= ( + Y0 25 ) Y8 )  ( <= ( + Y8 74 ) Y0 )  )
( or ( <= ( + X0 27 ) X9 )  ( <= ( + X9 81 ) X0 )  ( <= ( + Y0 25 ) Y9 )  ( <= ( + Y9 4 ) Y0 )  )
( or ( <= ( + X0 27 ) X10 )  ( <= ( + X10 36 ) X0 )  ( <= ( + Y0 25 ) Y10 )  ( <= ( + Y10 89 ) Y0 )  )
( or ( <= ( + X0 27 ) X11 )  ( <= ( + X11 19 ) X0 )  ( <= ( + Y0 25 ) Y11 )  ( <= ( + Y11 39 ) Y0 )  )
( or ( <= ( + X0 27 ) X12 )  ( <= ( + X12 100 ) X0 )  ( <= ( + Y0 25 ) Y12 )  ( <= ( + Y12 35 ) Y0 )  )
( or ( <= ( + X0 27 ) X13 )  ( <= ( + X13 96 ) X0 )  ( <= ( + Y0 25 ) Y13 )  ( <= ( + Y13 1 ) Y0 )  )
( or ( <= ( + X0 27 ) X14 )  ( <= ( + X14 79 ) X0 )  ( <= ( + Y0 25 ) Y14 )  ( <= ( + Y14 71 ) Y0 )  )
( or ( <= ( + X1 19 ) X2 )  ( <= ( + X2 84 ) X1 )  ( <= ( + Y1 24 ) Y2 )  ( <= ( + Y2 55 ) Y1 )  )
( or ( <= ( + X1 19 ) X3 )  ( <= ( + X3 71 ) X1 )  ( <= ( + Y1 24 ) Y3 )  ( <= ( + Y3 10 ) Y1 )  )
( or ( <= ( + X1 19 ) X4 )  ( <= ( + X4 62 ) X1 )  ( <= ( + Y1 24 ) Y4 )  ( <= ( + Y4 91 ) Y1 )  )
( or ( <= ( + X1 19 ) X5 )  ( <= ( + X5 98 ) X1 )  ( <= ( + Y1 24 ) Y5 )  ( <= ( + Y5 62 ) Y1 )  )
( or ( <= ( + X1 19 ) X6 )  ( <= ( + X6 16 ) X1 )  ( <= ( + Y1 24 ) Y6 )  ( <= ( + Y6 70 ) Y1 )  )
( or ( <= ( + X1 19 ) X7 )  ( <= ( + X7 31 ) X1 )  ( <= ( + Y1 24 ) Y7 )  ( <= ( + Y7 53 ) Y1 )  )
( or ( <= ( + X1 19 ) X8 )  ( <= ( + X8 97 ) X1 )  ( <= ( + Y1 24 ) Y8 )  ( <= ( + Y8 74 ) Y1 )  )
( or ( <= ( + X1 19 ) X9 )  ( <= ( + X9 81 ) X1 )  ( <= ( + Y1 24 ) Y9 )  ( <= ( + Y9 4 ) Y1 )  )
( or ( <= ( + X1 19 ) X10 )  ( <= ( + X10 36 ) X1 )  ( <= ( + Y1 24 ) Y10 )  ( <= ( + Y10 89 ) Y1 )  )
( or ( <= ( + X1 19 ) X11 )  ( <= ( + X11 19 ) X1 )  ( <= ( + Y1 24 ) Y11 )  ( <= ( + Y11 39 ) Y1 )  )
( or ( <= ( + X1 19 ) X12 )  ( <= ( + X12 100 ) X1 )  ( <= ( + Y1 24 ) Y12 )  ( <= ( + Y12 35 ) Y1 )  )
( or ( <= ( + X1 19 ) X13 )  ( <= ( + X13 96 ) X1 )  ( <= ( + Y1 24 ) Y13 )  ( <= ( + Y13 1 ) Y1 )  )
( or ( <= ( + X1 19 ) X14 )  ( <= ( + X14 79 ) X1 )  ( <= ( + Y1 24 ) Y14 )  ( <= ( + Y14 71 ) Y1 )  )
( or ( <= ( + X2 84 ) X3 )  ( <= ( + X3 71 ) X2 )  ( <= ( + Y2 55 ) Y3 )  ( <= ( + Y3 10 ) Y2 )  )
( or ( <= ( + X2 84 ) X4 )  ( <= ( + X4 62 ) X2 )  ( <= ( + Y2 55 ) Y4 )  ( <= ( + Y4 91 ) Y2 )  )
( or ( <= ( + X2 84 ) X5 )  ( <= ( + X5 98 ) X2 )  ( <= ( + Y2 55 ) Y5 )  ( <= ( + Y5 62 ) Y2 )  )
( or ( <= ( + X2 84 ) X6 )  ( <= ( + X6 16 ) X2 )  ( <= ( + Y2 55 ) Y6 )  ( <= ( + Y6 70 ) Y2 )  )
( or ( <= ( + X2 84 ) X7 )  ( <= ( + X7 31 ) X2 )  ( <= ( + Y2 55 ) Y7 )  ( <= ( + Y7 53 ) Y2 )  )
( or ( <= ( + X2 84 ) X8 )  ( <= ( + X8 97 ) X2 )  ( <= ( + Y2 55 ) Y8 )  ( <= ( + Y8 74 ) Y2 )  )
( or ( <= ( + X2 84 ) X9 )  ( <= ( + X9 81 ) X2 )  ( <= ( + Y2 55 ) Y9 )  ( <= ( + Y9 4 ) Y2 )  )
( or ( <= ( + X2 84 ) X10 )  ( <= ( + X10 36 ) X2 )  ( <= ( + Y2 55 ) Y10 )  ( <= ( + Y10 89 ) Y2 )  )
( or ( <= ( + X2 84 ) X11 )  ( <= ( + X11 19 ) X2 )  ( <= ( + Y2 55 ) Y11 )  ( <= ( + Y11 39 ) Y2 )  )
( or ( <= ( + X2 84 ) X12 )  ( <= ( + X12 100 ) X2 )  ( <= ( + Y2 55 ) Y12 )  ( <= ( + Y12 35 ) Y2 )  )
( or ( <= ( + X2 84 ) X13 )  ( <= ( + X13 96 ) X2 )  ( <= ( + Y2 55 ) Y13 )  ( <= ( + Y13 1 ) Y2 )  )
( or ( <= ( + X2 84 ) X14 )  ( <= ( + X14 79 ) X2 )  ( <= ( + Y2 55 ) Y14 )  ( <= ( + Y14 71 ) Y2 )  )
( or ( <= ( + X3 71 ) X4 )  ( <= ( + X4 62 ) X3 )  ( <= ( + Y3 10 ) Y4 )  ( <= ( + Y4 91 ) Y3 )  )
( or ( <= ( + X3 71 ) X5 )  ( <= ( + X5 98 ) X3 )  ( <= ( + Y3 10 ) Y5 )  ( <= ( + Y5 62 ) Y3 )  )
( or ( <= ( + X3 71 ) X6 )  ( <= ( + X6 16 ) X3 )  ( <= ( + Y3 10 ) Y6 )  ( <= ( + Y6 70 ) Y3 )  )
( or ( <= ( + X3 71 ) X7 )  ( <= ( + X7 31 ) X3 )  ( <= ( + Y3 10 ) Y7 )  ( <= ( + Y7 53 ) Y3 )  )
( or ( <= ( + X3 71 ) X8 )  ( <= ( + X8 97 ) X3 )  ( <= ( + Y3 10 ) Y8 )  ( <= ( + Y8 74 ) Y3 )  )
( or ( <= ( + X3 71 ) X9 )  ( <= ( + X9 81 ) X3 )  ( <= ( + Y3 10 ) Y9 )  ( <= ( + Y9 4 ) Y3 )  )
( or ( <= ( + X3 71 ) X10 )  ( <= ( + X10 36 ) X3 )  ( <= ( + Y3 10 ) Y10 )  ( <= ( + Y10 89 ) Y3 )  )
( or ( <= ( + X3 71 ) X11 )  ( <= ( + X11 19 ) X3 )  ( <= ( + Y3 10 ) Y11 )  ( <= ( + Y11 39 ) Y3 )  )
( or ( <= ( + X3 71 ) X12 )  ( <= ( + X12 100 ) X3 )  ( <= ( + Y3 10 ) Y12 )  ( <= ( + Y12 35 ) Y3 )  )
( or ( <= ( + X3 71 ) X13 )  ( <= ( + X13 96 ) X3 )  ( <= ( + Y3 10 ) Y13 )  ( <= ( + Y13 1 ) Y3 )  )
( or ( <= ( + X3 71 ) X14 )  ( <= ( + X14 79 ) X3 )  ( <= ( + Y3 10 ) Y14 )  ( <= ( + Y14 71 ) Y3 )  )
( or ( <= ( + X4 62 ) X5 )  ( <= ( + X5 98 ) X4 )  ( <= ( + Y4 91 ) Y5 )  ( <= ( + Y5 62 ) Y4 )  )
( or ( <= ( + X4 62 ) X6 )  ( <= ( + X6 16 ) X4 )  ( <= ( + Y4 91 ) Y6 )  ( <= ( + Y6 70 ) Y4 )  )
( or ( <= ( + X4 62 ) X7 )  ( <= ( + X7 31 ) X4 )  ( <= ( + Y4 91 ) Y7 )  ( <= ( + Y7 53 ) Y4 )  )
( or ( <= ( + X4 62 ) X8 )  ( <= ( + X8 97 ) X4 )  ( <= ( + Y4 91 ) Y8 )  ( <= ( + Y8 74 ) Y4 )  )
( or ( <= ( + X4 62 ) X9 )  ( <= ( + X9 81 ) X4 )  ( <= ( + Y4 91 ) Y9 )  ( <= ( + Y9 4 ) Y4 )  )
( or ( <= ( + X4 62 ) X10 )  ( <= ( + X10 36 ) X4 )  ( <= ( + Y4 91 ) Y10 )  ( <= ( + Y10 89 ) Y4 )  )
( or ( <= ( + X4 62 ) X11 )  ( <= ( + X11 19 ) X4 )  ( <= ( + Y4 91 ) Y11 )  ( <= ( + Y11 39 ) Y4 )  )
( or ( <= ( + X4 62 ) X12 )  ( <= ( + X12 100 ) X4 )  ( <= ( + Y4 91 ) Y12 )  ( <= ( + Y12 35 ) Y4 )  )
( or ( <= ( + X4 62 ) X13 )  ( <= ( + X13 96 ) X4 )  ( <= ( + Y4 91 ) Y13 )  ( <= ( + Y13 1 ) Y4 )  )
( or ( <= ( + X4 62 ) X14 )  ( <= ( + X14 79 ) X4 )  ( <= ( + Y4 91 ) Y14 )  ( <= ( + Y14 71 ) Y4 )  )
( or ( <= ( + X5 98 ) X6 )  ( <= ( + X6 16 ) X5 )  ( <= ( + Y5 62 ) Y6 )  ( <= ( + Y6 70 ) Y5 )  )
( or ( <= ( + X5 98 ) X7 )  ( <= ( + X7 31 ) X5 )  ( <= ( + Y5 62 ) Y7 )  ( <= ( + Y7 53 ) Y5 )  )
( or ( <= ( + X5 98 ) X8 )  ( <= ( + X8 97 ) X5 )  ( <= ( + Y5 62 ) Y8 )  ( <= ( + Y8 74 ) Y5 )  )
( or ( <= ( + X5 98 ) X9 )  ( <= ( + X9 81 ) X5 )  ( <= ( + Y5 62 ) Y9 )  ( <= ( + Y9 4 ) Y5 )  )
( or ( <= ( + X5 98 ) X10 )  ( <= ( + X10 36 ) X5 )  ( <= ( + Y5 62 ) Y10 )  ( <= ( + Y10 89 ) Y5 )  )
( or ( <= ( + X5 98 ) X11 )  ( <= ( + X11 19 ) X5 )  ( <= ( + Y5 62 ) Y11 )  ( <= ( + Y11 39 ) Y5 )  )
( or ( <= ( + X5 98 ) X12 )  ( <= ( + X12 100 ) X5 )  ( <= ( + Y5 62 ) Y12 )  ( <= ( + Y12 35 ) Y5 )  )
( or ( <= ( + X5 98 ) X13 )  ( <= ( + X13 96 ) X5 )  ( <= ( + Y5 62 ) Y13 )  ( <= ( + Y13 1 ) Y5 )  )
( or ( <= ( + X5 98 ) X14 )  ( <= ( + X14 79 ) X5 )  ( <= ( + Y5 62 ) Y14 )  ( <= ( + Y14 71 ) Y5 )  )
( or ( <= ( + X6 16 ) X7 )  ( <= ( + X7 31 ) X6 )  ( <= ( + Y6 70 ) Y7 )  ( <= ( + Y7 53 ) Y6 )  )
( or ( <= ( + X6 16 ) X8 )  ( <= ( + X8 97 ) X6 )  ( <= ( + Y6 70 ) Y8 )  ( <= ( + Y8 74 ) Y6 )  )
( or ( <= ( + X6 16 ) X9 )  ( <= ( + X9 81 ) X6 )  ( <= ( + Y6 70 ) Y9 )  ( <= ( + Y9 4 ) Y6 )  )
( or ( <= ( + X6 16 ) X10 )  ( <= ( + X10 36 ) X6 )  ( <= ( + Y6 70 ) Y10 )  ( <= ( + Y10 89 ) Y6 )  )
( or ( <= ( + X6 16 ) X11 )  ( <= ( + X11 19 ) X6 )  ( <= ( + Y6 70 ) Y11 )  ( <= ( + Y11 39 ) Y6 )  )
( or ( <= ( + X6 16 ) X12 )  ( <= ( + X12 100 ) X6 )  ( <= ( + Y6 70 ) Y12 )  ( <= ( + Y12 35 ) Y6 )  )
( or ( <= ( + X6 16 ) X13 )  ( <= ( + X13 96 ) X6 )  ( <= ( + Y6 70 ) Y13 )  ( <= ( + Y13 1 ) Y6 )  )
( or ( <= ( + X6 16 ) X14 )  ( <= ( + X14 79 ) X6 )  ( <= ( + Y6 70 ) Y14 )  ( <= ( + Y14 71 ) Y6 )  )
( or ( <= ( + X7 31 ) X8 )  ( <= ( + X8 97 ) X7 )  ( <= ( + Y7 53 ) Y8 )  ( <= ( + Y8 74 ) Y7 )  )
( or ( <= ( + X7 31 ) X9 )  ( <= ( + X9 81 ) X7 )  ( <= ( + Y7 53 ) Y9 )  ( <= ( + Y9 4 ) Y7 )  )
( or ( <= ( + X7 31 ) X10 )  ( <= ( + X10 36 ) X7 )  ( <= ( + Y7 53 ) Y10 )  ( <= ( + Y10 89 ) Y7 )  )
( or ( <= ( + X7 31 ) X11 )  ( <= ( + X11 19 ) X7 )  ( <= ( + Y7 53 ) Y11 )  ( <= ( + Y11 39 ) Y7 )  )
( or ( <= ( + X7 31 ) X12 )  ( <= ( + X12 100 ) X7 )  ( <= ( + Y7 53 ) Y12 )  ( <= ( + Y12 35 ) Y7 )  )
( or ( <= ( + X7 31 ) X13 )  ( <= ( + X13 96 ) X7 )  ( <= ( + Y7 53 ) Y13 )  ( <= ( + Y13 1 ) Y7 )  )
( or ( <= ( + X7 31 ) X14 )  ( <= ( + X14 79 ) X7 )  ( <= ( + Y7 53 ) Y14 )  ( <= ( + Y14 71 ) Y7 )  )
( or ( <= ( + X8 97 ) X9 )  ( <= ( + X9 81 ) X8 )  ( <= ( + Y8 74 ) Y9 )  ( <= ( + Y9 4 ) Y8 )  )
( or ( <= ( + X8 97 ) X10 )  ( <= ( + X10 36 ) X8 )  ( <= ( + Y8 74 ) Y10 )  ( <= ( + Y10 89 ) Y8 )  )
( or ( <= ( + X8 97 ) X11 )  ( <= ( + X11 19 ) X8 )  ( <= ( + Y8 74 ) Y11 )  ( <= ( + Y11 39 ) Y8 )  )
( or ( <= ( + X8 97 ) X12 )  ( <= ( + X12 100 ) X8 )  ( <= ( + Y8 74 ) Y12 )  ( <= ( + Y12 35 ) Y8 )  )
( or ( <= ( + X8 97 ) X13 )  ( <= ( + X13 96 ) X8 )  ( <= ( + Y8 74 ) Y13 )  ( <= ( + Y13 1 ) Y8 )  )
( or ( <= ( + X8 97 ) X14 )  ( <= ( + X14 79 ) X8 )  ( <= ( + Y8 74 ) Y14 )  ( <= ( + Y14 71 ) Y8 )  )
( or ( <= ( + X9 81 ) X10 )  ( <= ( + X10 36 ) X9 )  ( <= ( + Y9 4 ) Y10 )  ( <= ( + Y10 89 ) Y9 )  )
( or ( <= ( + X9 81 ) X11 )  ( <= ( + X11 19 ) X9 )  ( <= ( + Y9 4 ) Y11 )  ( <= ( + Y11 39 ) Y9 )  )
( or ( <= ( + X9 81 ) X12 )  ( <= ( + X12 100 ) X9 )  ( <= ( + Y9 4 ) Y12 )  ( <= ( + Y12 35 ) Y9 )  )
( or ( <= ( + X9 81 ) X13 )  ( <= ( + X13 96 ) X9 )  ( <= ( + Y9 4 ) Y13 )  ( <= ( + Y13 1 ) Y9 )  )
( or ( <= ( + X9 81 ) X14 )  ( <= ( + X14 79 ) X9 )  ( <= ( + Y9 4 ) Y14 )  ( <= ( + Y14 71 ) Y9 )  )
( or ( <= ( + X10 36 ) X11 )  ( <= ( + X11 19 ) X10 )  ( <= ( + Y10 89 ) Y11 )  ( <= ( + Y11 39 ) Y10 )  )
( or ( <= ( + X10 36 ) X12 )  ( <= ( + X12 100 ) X10 )  ( <= ( + Y10 89 ) Y12 )  ( <= ( + Y12 35 ) Y10 )  )
( or ( <= ( + X10 36 ) X13 )  ( <= ( + X13 96 ) X10 )  ( <= ( + Y10 89 ) Y13 )  ( <= ( + Y13 1 ) Y10 )  )
( or ( <= ( + X10 36 ) X14 )  ( <= ( + X14 79 ) X10 )  ( <= ( + Y10 89 ) Y14 )  ( <= ( + Y14 71 ) Y10 )  )
( or ( <= ( + X11 19 ) X12 )  ( <= ( + X12 100 ) X11 )  ( <= ( + Y11 39 ) Y12 )  ( <= ( + Y12 35 ) Y11 )  )
( or ( <= ( + X11 19 ) X13 )  ( <= ( + X13 96 ) X11 )  ( <= ( + Y11 39 ) Y13 )  ( <= ( + Y13 1 ) Y11 )  )
( or ( <= ( + X11 19 ) X14 )  ( <= ( + X14 79 ) X11 )  ( <= ( + Y11 39 ) Y14 )  ( <= ( + Y14 71 ) Y11 )  )
( or ( <= ( + X12 100 ) X13 )  ( <= ( + X13 96 ) X12 )  ( <= ( + Y12 35 ) Y13 )  ( <= ( + Y13 1 ) Y12 )  )
( or ( <= ( + X12 100 ) X14 )  ( <= ( + X14 79 ) X12 )  ( <= ( + Y12 35 ) Y14 )  ( <= ( + Y14 71 ) Y12 )  )
( or ( <= ( + X13 96 ) X14 )  ( <= ( + X14 79 ) X13 )  ( <= ( + Y13 1 ) Y14 )  ( <= ( + Y14 71 ) Y13 )  )
( >= X0 0)
( <= ( + X0 27) Z)
( >= Y0 0)
( <= ( + Y0 25 ) 100)
( >= X1 0)
( <= ( + X1 19) Z)
( >= Y1 0)
( <= ( + Y1 24 ) 100)
( >= X2 0)
( <= ( + X2 84) Z)
( >= Y2 0)
( <= ( + Y2 55 ) 100)
( >= X3 0)
( <= ( + X3 71) Z)
( >= Y3 0)
( <= ( + Y3 10 ) 100)
( >= X4 0)
( <= ( + X4 62) Z)
( >= Y4 0)
( <= ( + Y4 91 ) 100)
( >= X5 0)
( <= ( + X5 98) Z)
( >= Y5 0)
( <= ( + Y5 62 ) 100)
( >= X6 0)
( <= ( + X6 16) Z)
( >= Y6 0)
( <= ( + Y6 70 ) 100)
( >= X7 0)
( <= ( + X7 31) Z)
( >= Y7 0)
( <= ( + Y7 53 ) 100)
( >= X8 0)
( <= ( + X8 97) Z)
( >= Y8 0)
( <= ( + Y8 74 ) 100)
( >= X9 0)
( <= ( + X9 81) Z)
( >= Y9 0)
( <= ( + Y9 4 ) 100)
( >= X10 0)
( <= ( + X10 36) Z)
( >= Y10 0)
( <= ( + Y10 89 ) 100)
( >= X11 0)
( <= ( + X11 19) Z)
( >= Y11 0)
( <= ( + Y11 39 ) 100)
( >= X12 0)
( <= ( + X12 100) Z)
( >= Y12 0)
( <= ( + Y12 35 ) 100)
( >= X13 0)
( <= ( + X13 96) Z)
( >= Y13 0)
( <= ( + Y13 1 ) 100)
( >= X14 0)
( <= ( + X14 79) Z)
( >= Y14 0)
( <= ( + Y14 71 ) 100)
) )
(minimize Z)
(check-sat)
